50
36 140 288 216 72 42 126 324 56 112 324 98 216 180 140 216 140 126 216 216 72 324 14 42 180 360 180 252 56 56 360 36 112 108 72 14 126 112 36 140 70 98 108 180 56 144 36 288 108 360 
21 90 168 126 42 27 81 189 36 72 189 63 126 105 90 126 90 81 126 126 42 189 9 27 105 210 105 147 36 36 210 21 72 63 42 9 81 72 21 90 45 63 63 105 36 84 21 168 63 210 
3655
